
 102   30
  10   10   10   10   10   10   10   10   10   10   10   10   10   10   10   10   10   10   10   10   10   10   10   10   10   10   10   10   10   10

   0   0   0   0   0   0   0   0   0   0   0   0   0   0   0   0   0   0   0   0   0   0   0   0   0   0   0   0   0   0   0  25 2 3 4 5 6 7 8 9 10 11 12 13 14 15 17 19 22 24 25 27 30 34 36 40 46 
   2   3   0   1   0   0   0   0   2   0   0   0   0   1   0   0   0   0   0   0   0   0   0   1   0   0   4   0   0   1   0  14 97 96 70 66 58 57 50 49 47 44 42 38 32 21 
   8   0   0   0   3   0   0   0   0   0   0   3   0   3   3   0   0   0   0   0   0   0   0   0   1   0   0   0   1   0   0  10 100 99 70 67 55 48 38 28 23 16 
   6   0   0   0   0   0   0   0   0   0   0   0   1   0   0   0   0   0   0   0   0   0   0   0   0   0   0   0   0   9   0  24 101 98 97 96 95 93 69 68 67 63 62 58 56 54 53 52 51 50 49 47 42 41 39 37 
   7   0   0   0   4   0   0   0   0   0   0   0   0   0   0   0   0   0   0   0   0   0   0   6   0   0   0   0   0   0   0  12 101 98 96 63 55 52 50 49 45 41 33 21 
   9   0   1   0   0   0   0   0   0   0   0   3   0   0   0   0   0   0   0   0   1   1   0   0  10   0   4   0   0   0   0  10 100 99 97 96 59 53 47 37 26 18 
   1   0   0   0   0   0   0   0   0   0   0   0   0   0   0   0   0   0   0   0   0   0   0   0   0   0   0   1   0   0   0  19 100 99 98 96 95 69 68 67 59 58 57 56 54 51 50 49 38 37 35 
   2   0   0   0   0   0   0   0   0   0   0   0   0   0   0   0   0   0   0   1   0   0   0   0   0   0   0   0   4   0   0  13 100 99 98 97 95 69 59 56 54 49 44 37 20 
   1   0   0   0   0   0   0   0   0   1   0   7   6   0   0   0   0   0   0   0   0   0   1   0   0   0   0   0   0   0   0  20 100 99 98 97 96 90 70 69 67 64 62 59 58 57 56 53 47 44 42 39 
   8   0   0   0   0   0   0   0   0   7   0   0   0   0   0   1   0   2   0   8   2   0   7   0   0   0   0   0   0   0   0  22 100 98 97 96 94 91 90 70 68 67 66 63 61 58 56 55 54 52 51 50 44 43 
   3   0   0   0   0   2   0   4   0   0   0   0   6   0   0   0   0   0   0   0   4   0   0   0   0   0   0   0   0   5   0  13 99 97 93 92 91 88 68 63 59 47 45 31 29 
   4   0   0   0   0   0   0   0   4   0   0   0   0   0   0   0   0   0   1   6   0   0   0   0   0   0   0   7   6   0   0  17 99 98 97 91 86 69 68 67 58 56 55 54 53 52 47 45 39 
  10   5   0   0   0   0   0   0   0   0   0   0   6   0   0   0   0   7   0   0   5   0   0   0   0   0   0   0   0   0   0  19 99 98 97 96 95 92 88 87 68 67 63 62 59 57 56 53 51 49 47 
   9   6   0   0   0   0   0   0   0   0   0   0   0   0   0   0   0   0   0   0   0   0   0   0   0   0   0   0   3   0   0  13 98 96 93 92 91 68 58 57 55 52 49 47 33 
   2   0   0   0   0   1   0   0   0   0   0   0   0   0   0   0   0   0   3   0   0   0   0   0   0   0   0   0   0   0   0   8 97 70 67 63 62 47 38 21 
   1   0   0   0   0   0   0   0   0   0   1   6   0   0   0   0   0   0   0   0   9   0   7  10   0   0   0   0   0   8   0  11 98 96 95 91 68 62 58 53 50 47 44 
   3   0   0   0   0   0   0   0   0   0   0   7   0   0   0   0   0   0   0   0   2   0   0   0   0   1   0   0   0   0   0  11 101 98 96 91 90 59 58 54 50 47 42 
   6   0   0   0   0   0   0   0   0   0  10   0   0   0   0   0   0   0   0   0   0   0  10   0   0   0   6   0   0   0   0   9 101 95 93 89 85 63 62 56 28 
   5   5   0   0   0   0   0   0   0   0   0   0   5   0   0  10   0   0   0   7   0   0   0   0   0   0   0   0   0   0   1  18 100 97 95 94 93 91 90 87 86 85 84 81 68 66 62 57 54 51 
   5   6   0   0   0   0   0   0   0   0   0   0   0   0   0   0   4   0   8   0   0   0   0   0   0   0   0   0   0   0   0  11 96 91 90 67 66 63 58 57 55 47 39 
   4   0   0   6   0   0   0   0  10   6   0   0   7   0   0   9   0   5  10   7   0   0   0   0   0   0   6   0   0   0   0  21 100 99 95 94 93 91 90 89 87 86 85 82 81 75 73 71 69 68 60 56 54 
   7   0   5   0   0   0   0   0   0   0   0   0   0   0   0   0   0   0   0   0   0   0   0   0   0   0   0   0   0   0   0  14 99 96 94 93 91 86 80 67 65 61 59 58 57 49 
   1   0   0   0   0   0   2   0   0   0   0   0   7   0   0   0   0   0   0   0   0   0   0   0   0   0   0   0   0   0   0  18 97 96 95 94 93 92 91 88 87 86 85 80 69 68 61 59 57 51 
   8   0   0   0   0   0   0   0   0   0   0   8   3   9   0   0   0   0   0   0   0   0   0   0   0   9   3   0   0   0   0  16 98 96 95 94 93 92 91 90 89 82 81 80 79 67 53 48 
   9   0   0   0   0   9   5   0   0   0   0   0   8   0   0   0   0   7   0   0   8   7   0   0   0   0   0   0   0   6   0  22 100 98 95 94 93 92 90 89 87 86 84 83 82 81 77 76 75 73 72 66 61 60 
   7   0   0   0   0   0   0   0   2   0   0   0   0   0   0   5   0   0   0   0   0   0   0   0   0   6   0   0   0   4   0  14 94 91 90 88 84 83 80 78 74 72 69 67 55 44 
   7   0   5   0   0  10   7   0   0   0   7   4   0   0   0   4   0   7   4   0   0   0   0   6   0   0   0   0   0   0   0  11 99 93 88 86 80 73 70 69 61 55 49 
   2   0   0   0   0   0  10   5   0   6   0   0   7   0   0   0   0   0   0   0   0   0   0   0   0   0   0   0   0   0   0  16 91 90 84 83 82 81 79 78 73 69 68 66 65 61 58 54 
   8   0   6   0   0   0   0   0   5   0   0   0   0   0   0   0   0   0   8   0   0   0   0   0   0   0   0   0   4   0   0  15 95 94 90 87 85 82 81 80 76 70 67 65 62 60 56 
  10   5   0   0   0   0   0   0   7   0   0   0   0   0   4   0   0   3   0   0  10   0   0   0   0   0   7   0   0   0   6  11 96 91 89 87 86 75 68 65 61 54 50 
   2   0   0   0   5   0   4   0   0   0   0   0   0   0   0   0   0   0   0   0   0   0   0   0   0   0  10   0   0   0   0  16 100 96 94 87 85 84 81 80 75 74 73 70 69 66 60 57 
   4   0   0   0   0   0   0   0   0   5   0   0   0   0   5   0   0   0   0   0   0   7   6   0   0   0   0   0   0   0   0  15 101 93 90 88 87 85 80 79 78 72 67 65 63 62 59 
   4   0   0   0   0   7   8   0   4   0   0   5   0   0   0   0   0   7   9   9   0   0   0   0   0   8   0   0   0   0   0  15 97 94 87 86 81 80 79 78 76 75 74 73 70 67 53 
   1   0   0   0   0   0   0   0   0   0   0   5   0   0   0   0   0   0   0   4   7   0   0   3   0   0   0   0   0   0   0  14 96 93 91 89 85 84 82 81 80 73 71 63 60 58 
   4   0   0   0   0   0   0   0   0   0   0   5   0   0   0   8   0   0   0   0   4   0   0   0   0   0   0   0   0   0   0   9 97 90 88 87 84 83 70 55 44 
   2   0   0   0   0   0   0   0   5   0   0   0   0   5   0   0   0   0   4   0   0   0   0   0   0   0   0   6   0   0   0  15 95 94 93 90 86 85 82 80 77 75 74 73 72 71 60 
   7   0   0   0   0   0   0   0   0   0   0   0   0   0   0   0   0   0   0   0   0   8   0   0   0   0   0   5   0   0   0  13 91 86 83 82 81 76 75 74 73 72 66 65 60 
   4   0   0   0   0   0   0   0   5   0   0   0   0   0   0   0   0   8   0   0   0   0   0   0   0   0   0   0   0   0   0  15 93 92 91 90 87 84 83 82 81 80 77 76 75 74 73 
   6   0   7   0   0   0   0   0   0   6   0   0   6   0   0   5   0   0   0   0   0   0   4   0   0   0   0   0   0   0   0  13 94 92 88 84 83 82 81 80 74 73 72 71 60 
   3   0   0   0   0   0   0   0   0   0   0   0   7   0   0   0   0   0   0   0   6   0   0   0   0   0   0   0   0   0   0  13 93 92 91 90 85 84 80 79 78 75 74 73 63 
  10   0   0   0   0   0   0   0   0   0   0   0   0   0   0   0   0   0   4   0   0   0   0   0   0   0   0   4   8   0   0  12 92 91 84 82 81 80 79 75 74 72 71 57 
   3   0   9   0   0   0   0   0   0   0   0   0   0   0  10   0   0   0   0   0   5   0   0   0   0   0   0   0   0   0   0   9 89 87 86 81 80 74 73 72 55 
  10   0   0   0   4   0   0   0   0   0   0   0   0   0  10   0   0   4   0   8   0   5   0   0   0   0   0   0   0   0   0   9 88 87 86 85 84 72 71 62 57 
   3   0   0   0   0   0   0   0   0   6   0   0   0   4   0   0   0   0   0   0   0   0   0   0   0   0   0   0   0   0   0  10 93 89 86 85 82 81 77 75 73 65 
   6   6   0   0   0   0   0   9   0   0   8   0   0  10   0   0   0   0   0   0   0   0   0   5   0   0   0   0   0   0   0   9 95 90 84 81 76 74 72 71 62 
   8   0   0   0   0   0   0   0   0   0   0   0   0   0   0   0   0   0   0   0   0   0   0   0   0   0   0   0   0   0   0   9 95 92 90 84 77 75 74 66 65 
   5   0   0   0   0   5   0   4   0   0   0   0   4   0   0   2   0   4   0   0   5   0   0   0   0   0   0   0   0   0   0   8 94 84 82 80 79 78 73 61 
   8   0   0   0   0   0   0   0   0   0   0   0   0   6   4   0   0   0   0   0   0   0   0   0   0   0   0   0   6   7   0   8 88 85 83 78 76 74 71 62 
   6   0   0   0   0   0   0   0   0   0   0   0   0   0   0   0   0   6   0   0   0   0   0   0   0   0   0   7   0   0   0   7 90 89 82 81 76 75 60 
   2   0   7   0   0   0   0   0   0   0   0   0   0   0   0   0   0   4   0   0   0   0   0   0   0   0   0   0   0   0   9   7 88 83 82 81 80 72 60 
  10   7   0   0   0   0   6   0   0   0   0   0   0   0   0   0   0  10   0   0   0   0   0   0   0   0   0   0   0   0   0   5 82 74 72 65 60 
   9   0   0   0   0   0   0   0   0   0   0   0   0   0   0   0   0   0   0   0   0   0   0   0   0   0   0   6   0   0   0   7 87 79 77 76 74 72 71 
   2   0   0   0   0   0   0   0   0   0   0   0   0   0   0   0   0   0   0   0   0   0   0   0   0   0   0   0   0   0   0   5 85 83 77 72 66 
   1  10   0   0   0   0   0   0   0   0   7   0   4   0   2   0   0   0   0   0   6   5   0   0   0   0   0   0   0   0   0   5 92 88 80 77 72 
   3   0   7   0   0   0   0   0   0   7   6   0   0   0   0   0   0   0   0   0   0   0   0   0   0   0   0   0   0   0   0   4 85 77 75 65 
   5   0   0   0   0   0   0   0   0   8   0   0   0   0   0   0   7   0   0   0   0   6   0   0   0   0   0   0   0   0   0   4 84 83 78 74 
   3   6   0   0   0   0   0   6   0   0   0   8   0   0   0   0   0   0   0   0   5   0   0   0   0   0   4   0   0   0   0   3 89 83 76 
   2   0   0   0   4   6   0   4   0   0   0   0   0   0   0   0   0   0   0   6   0   0   0   0   3   0   0   8   7   0   0   3 88 87 72 
   7   0   0   0   0   7   0   0   0   0   0   0   3   0  10   0   0   7   0   0   0   8   0   5   0   0   0   9   0   0   0   3 84 76 73 
   9   0   0   4   0   3   0   0   0   0   0   0   0   0   0   0   0   0   0   0   0   0   0   0   0   0   0   0   0   0   0   2 79 78 
   2   6   0   0   0   0   8   0   0   0   0   0   0   6   0   0   0   0   0   0   0   0   4  10   0   0   9  10   0   0   0   2 74 71 
  10   0   0   0  10   0   0   0   0   0   0   0   0   0   0   5   0   6   4   0   0   0   0   0   0   0   0   0   0   0   0   2 75 73 
   9   0   0   0   0   0   0   0   0   0   0   0   0   0   0   8   0   0   0   0   9   0   0   0   0   0   0   0   0   0   3   2 86 77 
   8   8   0   0   0   9   0  10   0   0   0   0   0   7   0   0   0   0   0   8   0   0   0   0   0   0   8   0   0   0   0   2 91 72 
   1   0   7   0   0   0   0   0   0   0   0   0   9   9   7   0   0   0   0   0   0   0   0   0   8   0  10   0   0   0   0   1 71 
   4   0   0   0   0   0   0   0   0   0   0   0   0   0   0   0   0   6   9   0   0   0   0   6   0   0   0   0   0   0   0   1 71 
   2   6   0   0   0   0   0   0   6   0   0   0   0   0   0   0   0  10   0   0   0   0   0   0   0   6   0   0   0   0   0   1 77 
   3   0   0   0   4   0   0   0   0   8   0   0   0   0   0   0   0   0   0   0   0   0   0   0   0   0   0   0   7   0   0   1 76 
  10   0   0   0   0   0   0   0   0   0   7   0   0   0   3   0   0   0   0   6   0   0   4   0   0   7   0   0   0   0   0   1 76 
   3   0   0   0   0   0   0   0   0   6   0   0   0   0   0   0   0   0   0   8   0   0   0   0   0   0   0   0   0   4   9   1 72 
   4   0   0   0   0   0   0   0   0   0   0   8   0   0   0   0   4   0   0   0   0   0   0   0   0   7   0   0   0   0   0   1 102
   3   0   0   0   0   9   0   0   0   0   0   0   0   0   0   0   0   0   0   0   0   0   0   0   0   0   0   0   0  10   0   1 102
   1   0   0   5   0   0   0   0   0   0   0   0   0   0  10   0   0   0   0   0   0   0   0   0   0   0   0   0   6   0   0   1 102
   6   5   0   0   0   0   0   0   0   4   0   0   0   0   0   0   0   0   9   0   7   0   0   6   0   0   0   0   0   0   0   1 102
   2   0   0   0   0   0   0   0   0   0   0   0   8   0   0   0   0   0   0   0   0   0   0   0   0   0   3   0   0   0   0   1 102
   8   0   0   0   0   0   0   0   0   9   0   0   0   0   0   0   0   0   0   3   5   0   0   0   0   5   0   0   0   0   0   1 102
   1   0   0   0   0   0   0   0   0   0   0   0   0   0   0   0   0   0   0   0   0   0   0   0   0   0   0   0   0   0   0   1 102
   8   0   0   0   0   6   0   0   0   0   0   4   9   0   0   0   0   3   0   0  10   0   0   0   0   0   0   0   6   5   0   1 102
   2   0   0   0   0   0   0   0   0   7   0   0   0   0   0   0   0   0   7   0   0   0   0   5   0   0   0   0   0   0   7   1 102
   4   0   0   0   0   0   3   0   6   0   0   0   0   0   0   0   0   0   0   0   8   0   0   5   0   0   0   5   8   0   0   1 102
   4   0   0   0   0   0   0   0   0   0   5   0   0   0   2   9   0   0   0   0   0   0   0   0   7   0   0   0   0   0   0   1 102
  10   0   0   0   0   0   0   0   0   6   0   0   0   0   0   0   0   0   0   0   0   0   8   0   0   5   0   0   0   0   0   1 102
   3   0   0   9   0   4   0   0   0   0   0   0   0   0   7   0   0   0   0   0   0   0   0  10   0   0   0   0   0   7   0   1 102
   6   0   0   9   0   0   0   0   0   0   0   0   0   6   0   0   0   0   8   0   4   0   0   0   0   0   0   0   0   0   0   1 102
   2   0   0   0   6   0   0   0   0   0   0   5   0   0   0   0  10   0   0   0   0   0   0   0   0   0   0   0   6   0   0   1 102
   9   0   0   0   0   4   5   0   0   0   3   0   0   0   0   0   0  10   0   0   0   0   0   0   0   0   0   0   0   0   0   1 102
   8   0   0   7   0   0   0   0   0   2   0   9   0   0   0   0   0   0   0   0   0   0   0   0   0   0   0   0   0   0   0   1 102
  10   0   0   0   0   0   0   0   0   0   0   0   0   0   0   0   0   5   2   0   0   0   0   0   0   0   0   0   0   0  10   1 102
   8   0   6   0   0   8   8   0   5   0   0  10   0   0   7   0   0   0   0   0   0   0   6   0   0   0   0   7   7   0   0   1 102
   7   0   0   6   0   0   0   0   0   9   0   0   6   0   0   0   0   0   0   0   0   0   0   0   8   0   3   0   0   0   0   1 102
   1   0   0   0   0   0   0   0   0   0   0   0   0   0   0   0   0   0   0   0   0   0   0   0   0   0   0   0   0   0   0   1 102
  10   0   6   0   0   0   0   0  10   5   0   0   0   0   0   0   0   0   0   0   0   0   0   0   0   0   0   4   0   0   0   1 102
   1   0   0   0   9   0   0   0   9   0   0   0   0   0   0   0   0   0   0   5   0   6   0   0   0   0   0   5   0   0   0   1 102
   3   0   0   0   0   0   0   0   0   0   0   0   0   0   0   0   0   0   0   0   0   0   9   6   0   0   0   0   0   0   3   1 102
   7   0   0   0   0   0   0   0   0   0   0   0   8   0   0   0   0   0   0   6  10   0   0   0   0   0   0   0  10   0   0   1 102
   4   0   0   0   0   0   0   0   0   0   0   0   0   0   0   0   0   0   0   4   0   6   0   0   0   0   7   0   0   0   0   1 102
   5   0   0   0   0   0   0   0   0   0   0   0   0   0   0   0   0   0   0   0   0   0   0   5   0   0   0   0   0   0   6   1 102
   9   0   0   0   0   0   0   0  10   0   0   0   0   0   0   0   5   5   0   0   0   7   0   0   5   0   0   0   0   0   0   1 102
   2   0   0   7   7   0   0   0   0   0   0   5   0   0   0   0   0   0   0   0   0   0   0   0   0   0   0   0   7   0   0   1 102
   4   0   0   0  10   0   0   0   0   0   0   0   0   0   0   0   0   0   0   0   0   0   0   7   0   0   0   0   0   0   0   1 102
   2   0   0   0   0   0   0   0   0   0   0   0   0   0   0   0   0   0   0   0   0   0   0   0   0   0   0   0   0   0   0   1 102
   0   0   0   0   0   0   0   0   0   0   0   0   0   0   0   0   0   0   0   0   0   0   0   0   0   0   0   0   0   0   0   0 
